p cnf 554
-7 -175
-8 -178
-9 -181
-10 -184
-11 -187
-12 -190
-13 191
-14 192
-15 193
-16 194
-17 195
-18 196
-19 197
-20 -8
-20 -9
8 9 20
-21 -10
-21 -11
10 11 21
-22 -12
-22 -13
12 13 22
-23 -14
-23 -15
14 15 23
-24 -16
-24 -17
16 17 24
-25 -18
-25 -19
18 19 25
-26 20
-26 21
-20 -21 26
-27 22
-27 23
-22 -23 27
-28 24
-28 25
-24 -25 28
-29 26
-29 27
-26 -27 29
-30 28
-30 29
-28 -29 30
-31 -7
-31 8
7 -8 31
-32 7
-32 -8
-7 8 32
-33 -31
-33 -32
31 32 33
-34 7
-34 8
-7 -8 34
-35 -7
-35 -33
7 33 35
-36 7
-36 33
-7 -33 36
-37 -35
-37 -36
35 36 37
-38 7
-38 -33
-7 33 38
-39 -34
-39 -38
34 38 39
-40 -8
-40 9
8 -9 40
-41 8
-41 -9
-8 9 41
-42 -40
-42 -41
40 41 42
-43 8
-43 9
-8 -9 43
-44 39
-44 -42
-39 42 44
-45 -39
-45 42
39 -42 45
-46 -44
-46 -45
44 45 46
-47 -39
-47 -42
39 42 47
-48 -43
-48 -47
43 47 48
-49 -9
-49 10
9 -10 49
-50 9
-50 -10
-9 10 50
-51 -49
-51 -50
49 50 51
-52 9
-52 10
-9 -10 52
-53 48
-53 -51
-48 51 53
-54 -48
-54 51
48 -51 54
-55 -53
-55 -54
53 54 55
-56 -48
-56 -51
48 51 56
-57 -52
-57 -56
52 56 57
-58 -10
-58 11
10 -11 58
-59 10
-59 -11
-10 11 59
-60 -58
-60 -59
58 59 60
-61 10
-61 11
-10 -11 61
-62 57
-62 -60
-57 60 62
-63 -57
-63 60
57 -60 63
-64 -62
-64 -63
62 63 64
-65 -57
-65 -60
57 60 65
-66 -61
-66 -65
61 65 66
-67 -11
-67 12
11 -12 67
-68 11
-68 -12
-11 12 68
-69 -67
-69 -68
67 68 69
-70 11
-70 12
-11 -12 70
-71 66
-71 -69
-66 69 71
-72 -66
-72 69
66 -69 72
-73 -71
-73 -72
71 72 73
-74 -66
-74 -69
66 69 74
-75 -70
-75 -74
70 74 75
-76 -12
-76 13
12 -13 76
-77 12
-77 -13
-12 13 77
-78 -76
-78 -77
76 77 78
-79 12
-79 13
-12 -13 79
-80 75
-80 -78
-75 78 80
-81 -75
-81 78
75 -78 81
-82 -80
-82 -81
80 81 82
-83 -75
-83 -78
75 78 83
-84 -79
-84 -83
79 83 84
-85 -13
-85 14
13 -14 85
-86 13
-86 -14
-13 14 86
-87 -85
-87 -86
85 86 87
-88 13
-88 14
-13 -14 88
-89 84
-89 -87
-84 87 89
-90 -84
-90 87
84 -87 90
-91 -89
-91 -90
89 90 91
-92 -84
-92 -87
84 87 92
-93 -88
-93 -92
88 92 93
-94 -14
-94 15
14 -15 94
-95 14
-95 -15
-14 15 95
-96 -94
-96 -95
94 95 96
-97 14
-97 15
-14 -15 97
-98 93
-98 -96
-93 96 98
-99 -93
-99 96
93 -96 99
-100 -98
-100 -99
98 99 100
-101 -93
-101 -96
93 96 101
-102 -97
-102 -101
97 101 102
-103 -15
-103 16
15 -16 103
-104 15
-104 -16
-15 16 104
-105 -103
-105 -104
103 104 105
-106 15
-106 16
-15 -16 106
-107 102
-107 -105
-102 105 107
-108 -102
-108 105
102 -105 108
-109 -107
-109 -108
107 108 109
-110 -102
-110 -105
102 105 110
-111 -106
-111 -110
106 110 111
-112 -16
-112 17
16 -17 112
-113 16
-113 -17
-16 17 113
-114 -112
-114 -113
112 113 114
-115 16
-115 17
-16 -17 115
-116 111
-116 -114
-111 114 116
-117 -111
-117 114
111 -114 117
-118 -116
-118 -117
116 117 118
-119 -111
-119 -114
111 114 119
-120 -115
-120 -119
115 119 120
-121 -17
-121 18
17 -18 121
-122 17
-122 -18
-17 18 122
-123 -121
-123 -122
121 122 123
-124 17
-124 18
-17 -18 124
-125 120
-125 -123
-120 123 125
-126 -120
-126 123
120 -123 126
-127 -125
-127 -126
125 126 127
-128 -120
-128 -123
120 123 128
-129 -124
-129 -128
124 128 129
-130 -18
-130 19
18 -19 130
-131 18
-131 -19
-18 19 131
-132 -130
-132 -131
130 131 132
-133 18
-133 19
-18 -19 133
-134 129
-134 -132
-129 132 134
-135 -129
-135 132
129 -132 135
-136 -134
-136 -135
134 135 136
-137 -129
-137 -132
129 132 137
-138 -133
-138 -137
133 137 138
-139 7
-139 -37
-7 37 139
-140 -7
-140 9
7 -9 140
-141 -139
-141 -140
139 140 141
-142 7
-142 -46
-7 46 142
-143 -7
-143 10
7 -10 143
-144 -142
-144 -143
142 143 144
-145 7
-145 -55
-7 55 145
-146 -7
-146 11
7 -11 146
-147 -145
-147 -146
145 146 147
-148 7
-148 -64
-7 64 148
-149 -7
-149 12
7 -12 149
-150 -148
-150 -149
148 149 150
-151 7
-151 -73
-7 73 151
-152 -7
-152 13
7 -13 152
-153 -151
-153 -152
151 152 153
-154 7
-154 -82
-7 82 154
-155 -7
-155 14
7 -14 155
-156 -154
-156 -155
154 155 156
-157 7
-157 -91
-7 91 157
-158 -7
-158 15
7 -15 158
-159 -157
-159 -158
157 158 159
-160 7
-160 -100
-7 100 160
-161 -7
-161 16
7 -16 161
-162 -160
-162 -161
160 161 162
-163 7
-163 -109
-7 109 163
-164 -7
-164 17
7 -17 164
-165 -163
-165 -164
163 164 165
-166 7
-166 -118
-7 118 166
-167 -7
-167 18
7 -18 167
-168 -166
-168 -167
166 167 168
-169 7
-169 -127
-7 127 169
-170 -7
-170 19
7 -19 170
-171 -169
-171 -170
169 170 171
-172 7
-172 -136
-7 136 172
-173 1
-173 30
-1 -30 173
-174 -30
-174 31
30 -31 174
-175 -173
-175 -174
173 174 175
-176 2
-176 30
-2 -30 176
-177 -30
-177 -141
30 141 177
-178 -176
-178 -177
176 177 178
-179 3
-179 30
-3 -30 179
-180 -30
-180 -144
30 144 180
-181 -179
-181 -180
179 180 181
-182 4
-182 30
-4 -30 182
-183 -30
-183 -147
30 147 183
-184 -182
-184 -183
182 183 184
-185 5
-185 30
-5 -30 185
-186 -30
-186 -150
30 150 186
-187 -185
-187 -186
185 186 187
-188 6
-188 30
-6 -30 188
-189 -30
-189 -153
30 153 189
-190 -188
-190 -189
188 189 190
-191 -30
-191 -156
30 156 191
-192 -30
-192 -159
30 159 192
-193 -30
-193 -162
30 162 193
-194 -30
-194 -165
30 165 194
-195 -30
-195 -168
30 168 195
-196 -30
-196 -171
30 171 196
-197 -30
-197 172
30 -172 197
-198 -19
-198 138
19 -138 198
-199 7
-199 -198
-7 198 199
199
